MARKOV
1067
 2 2 2 2 2 2 2 2 2 2 2 2 2 2 2 2 2 2 2 2 2 2 2 2 2 2 2 2 2 2 2 2 2 2 2 2 2 2 2 2 2 2 2 2 2 2 2 2 2 2 2 2 2 2 2 2 2 2 2 2 2 2 2 2 2 2 2 2 2 2 2 2 2 2 2 2 2 2 2 2 2 2 2 2 2 2 2 2 2 2 2 2 2 2 2 2 2 2 2 2 2 2 2 2 2 2 2 2 2 2 2 2 2 2 2 2 2 2 2 2 2 2 2 2 2 2 2 2 2 2 2 2 2 2 2 2 2 2 2 2 2 2 2 2 2 2 2 2 2 2 2 2 2 2 2 2 2 2 2 2 2 2 2 2 2 2 2 2 2 2 2 2 2 2 2 2 2 2 2 2 2 2 2 2 2 2 2 2 2 2 2 2 2 2 2 2 2 2 2 2 2 2 2 2 2 2 2 2 2 2 2 2 2 2 2 2 2 2 2 2 2 2 2 2 2 2 2 2 2 2 2 2 2 2 2 2 2 2 2 2 2 2 2 2 2 2 2 2 2 2 2 2 2 2 2 2 2 2 2 2 2 2 2 2 2 2 2 2 2 2 2 2 2 2 2 2 2 2 2 2 2 2 2 2 2 2 2 2 2 2 2 2 2 2 2 2 2 2 2 2 2 2 2 2 2 2 2 2 2 2 2 2 2 2 2 2 2 2 2 2 2 2 2 2 2 2 2 2 2 2 2 2 2 2 2 2 2 2 2 2 2 2 2 2 2 2 2 2 2 2 2 2 2 2 2 2 2 2 2 2 2 2 2 2 2 2 2 2 2 2 2 2 2 2 2 2 2 2 2 2 2 2 2 2 2 2 2 2 2 2 2 2 2 2 2 2 2 2 2 2 2 2 2 2 2 2 2 2 2 2 2 2 2 2 2 2 2 2 2 2 2 2 2 2 2 2 2 2 2 2 2 2 2 2 2 2 2 2 2 2 2 2 2 2 2 2 2 2 2 2 2 2 2 2 2 2 2 2 2 2 2 2 2 2 2 2 2 2 2 2 2 2 2 2 2 2 2 2 2 2 2 2 2 2 2 2 2 2 2 2 2 2 2 2 2 2 2 2 2 2 2 2 2 2 2 2 2 2 2 2 2 2 2 2 2 2 2 2 2 2 2 2 2 2 2 2 2 2 2 2 2 2 2 2 2 2 2 2 2 2 2 2 2 2 2 2 2 2 2 2 2 2 2 2 2 2 2 2 2 2 2 2 2 2 2 2 2 2 2 2 2 2 2 2 2 2 2 2 2 2 2 2 2 2 2 2 2 2 2 2 2 2 2 2 2 2 2 2 2 2 2 2 2 2 2 2 2 2 2 2 2 2 2 2 2 2 2 2 2 2 2 2 2 2 2 2 2 2 2 2 2 2 2 2 2 2 2 2 2 2 2 2 2 2 2 2 2 2 2 2 2 2 2 2 2 2 2 2 2 2 2 2 2 2 2 2 2 2 2 2 2 2 2 2 2 2 2 2 2 2 2 2 2 2 2 2 2 2 2 2 2 2 2 2 2 2 2 2 2 2 2 2 2 2 2 2 2 2 2 2 2 2 2 2 2 2 2 2 2 2 2 2 2 2 2 2 2 2 2 2 2 2 2 2 2 2 2 2 2 2 2 2 2 2 2 2 2 2 2 2 2 2 2 2 2 2 2 2 2 2 2 2 2 2 2 2 2 2 2 2 2 2 2 2 2 2 2 2 2 2 2 2 2 2 2 2 2 2 2 2 2 2 2 2 2 2 2 2 2 2 2 2 2 2 2 2 2 2 2 2 2 2 2 2 2 2 2 2 2 2 2 2 2 2 2 2 2 2 2 2 2 2 2 2 2 2 2 2 2 2 2 2 2 2 2 2 2 2 2 2 2 2 2 2 2 2 2 2 2 2 2 2 2 2 2 2 2 2 2 2 2 2 2 2 2 2 2 2 2 2 2 2 2 2 2 2 2 2 2 2 2 2 2 2 2 2 2 2 2 2 2 2 2 2 2 2 2 2 2 2 2 2 2 2 2 2 2 2 2 2 2 2 2 2 2 2 2 2 2 2 2 2 2 2 2 2 2 2 2 2 2 2 2 2 2 2 2 2 2 2 2 2 2 2 2 2 2 2 2 2 2 2 2 2 2 2 2 2 2 2 2 2 2 2 2 2 2 2 2 2 2 2 2 2 2 2 2 2 2 2 2 2 2 2 2 2 2 2 2 2 2 2 2 2 2 2 2 2 2 2 2 2 2 2 2 2 2 2 2 2 2 2 2 2 2 2 2 2 2 2 2 2 2 2 2 2 2 2 2 2 2 2 2 2 2 2 2 2 2 2 2 2 2 2 2 2 2 2 2 2 2 2 2 2 2 2 2
1084
3	71 104 1066 
3	114 1065 1066 
3	226 1064 1065 
3	260 1063 1064 
3	152 1062 1063 
3	32 1061 1062 
3	363 1060 1061 
3	328 1059 1060 
3	258 1058 1059 
3	349 1057 1058 
3	149 1056 1057 
3	285 1055 1056 
3	22 1054 1055 
3	172 1053 1054 
3	233 1052 1053 
3	263 1051 1052 
3	200 1050 1051 
1	1050 
1	227 
3	166 271 1049 
3	131 1048 1049 
3	1 1047 1048 
3	282 1046 1047 
3	238 1045 1046 
3	336 1044 1045 
3	60 1043 1044 
3	164 1042 1043 
3	246 1041 1042 
3	56 1040 1041 
3	364 1039 1040 
3	12 1038 1039 
3	360 1037 1038 
3	324 1036 1037 
3	340 1035 1036 
3	11 1034 1035 
3	344 1033 1034 
3	111 1032 1033 
3	270 1031 1032 
3	225 1030 1031 
3	95 1029 1030 
3	16 1028 1029 
3	311 1027 1028 
3	267 1026 1027 
3	333 1025 1026 
3	23 1024 1025 
3	300 1023 1024 
3	254 1022 1023 
3	342 1021 1022 
3	193 1020 1021 
3	97 1019 1020 
3	217 1018 1019 
3	352 1017 1018 
3	304 1016 1017 
3	146 1015 1016 
3	297 1014 1015 
3	120 1013 1014 
3	15 1012 1013 
3	202 1011 1012 
3	241 1010 1011 
3	192 1009 1010 
3	211 1008 1009 
3	320 1007 1008 
3	327 1006 1007 
3	128 1005 1006 
3	191 1004 1005 
3	281 1003 1004 
3	253 1002 1003 
3	309 1001 1002 
3	208 1000 1001 
3	129 999 1000 
3	266 998 999 
3	132 997 998 
3	32 996 997 
3	39 995 996 
3	122 994 995 
3	133 993 994 
3	335 992 993 
3	205 991 992 
3	250 990 991 
3	216 989 990 
3	156 988 989 
3	235 987 988 
3	77 986 987 
3	353 985 986 
3	10 984 985 
3	312 983 984 
3	224 982 983 
3	248 981 982 
3	194 980 981 
3	212 979 980 
3	249 978 979 
3	359 977 978 
3	118 976 977 
3	186 975 976 
3	82 974 975 
3	283 973 974 
3	274 972 973 
3	18 971 972 
3	13 970 971 
3	66 969 970 
3	154 968 969 
3	307 967 968 
3	150 966 967 
3	221 965 966 
3	220 964 965 
3	232 963 964 
3	75 962 963 
3	197 961 962 
1	961 
1	117 
3	131 166 960 
3	282 959 960 
3	1 958 959 
3	238 957 958 
3	208 956 957 
3	60 955 956 
3	266 954 955 
3	246 953 954 
3	149 952 953 
3	133 951 952 
3	122 950 951 
3	12 949 950 
3	360 948 949 
3	335 947 948 
3	251 946 947 
3	42 945 946 
3	205 944 945 
3	172 943 944 
3	316 942 943 
3	99 941 942 
3	340 940 941 
3	250 939 940 
3	216 938 939 
3	344 937 938 
3	11 936 937 
3	91 935 936 
3	111 934 935 
3	235 933 934 
3	77 932 933 
3	224 931 932 
3	311 930 931 
3	249 929 930 
3	333 928 929 
3	23 927 928 
3	300 926 927 
3	254 925 926 
3	332 924 925 
3	193 923 924 
3	186 922 923 
3	304 921 922 
3	120 920 921 
3	283 919 920 
3	274 918 919 
3	18 917 918 
3	13 916 917 
3	8 915 916 
3	66 914 915 
3	107 913 914 
3	313 912 913 
3	195 911 912 
3	211 910 911 
3	154 909 910 
3	320 908 909 
3	150 907 908 
3	220 906 907 
3	232 905 906 
3	287 904 905 
3	197 903 904 
1	903 
3	7 117 902 
3	42 901 902 
1	901 
3	1 131 900 
3	310 899 900 
3	362 898 899 
3	272 897 898 
3	129 896 897 
3	147 895 896 
3	52 894 895 
3	217 893 894 
3	132 892 893 
3	40 891 892 
3	326 890 891 
3	243 889 890 
3	59 888 889 
3	144 887 888 
3	240 886 887 
3	306 885 886 
3	295 884 885 
3	206 883 884 
3	130 882 883 
3	227 881 882 
3	353 880 881 
3	218 879 880 
3	289 878 879 
3	349 877 878 
3	128 876 877 
3	188 875 876 
1	875 
3	99 313 874 
3	266 873 874 
3	360 872 873 
1	872 
3	271 282 871 
3	84 870 871 
3	108 869 870 
3	322 868 869 
3	149 867 868 
3	56 866 867 
3	62 865 866 
3	360 864 865 
3	110 863 864 
3	340 862 863 
3	240 861 862 
3	199 860 861 
3	137 859 860 
3	46 858 859 
3	171 857 858 
3	158 856 857 
3	38 855 856 
3	273 854 855 
3	311 853 854 
3	333 852 853 
3	300 851 852 
3	254 850 851 
3	193 849 850 
3	332 848 849 
3	317 847 848 
3	97 846 847 
3	328 845 846 
3	304 844 845 
3	117 843 844 
3	146 842 843 
3	121 841 842 
3	313 840 841 
3	107 839 840 
3	70 838 839 
3	21 837 838 
3	128 836 837 
3	191 835 836 
3	305 834 835 
3	129 833 834 
3	321 832 833 
3	257 831 832 
3	53 830 831 
3	89 829 830 
3	266 828 829 
3	132 827 828 
3	354 826 827 
3	105 825 826 
3	93 824 825 
3	133 823 824 
3	63 822 823 
3	335 821 822 
3	172 820 821 
3	200 819 820 
3	329 818 819 
3	99 817 818 
3	101 816 817 
3	216 815 816 
3	91 814 815 
3	17 813 814 
3	173 812 813 
3	78 811 812 
3	77 810 811 
3	343 809 810 
3	299 808 809 
3	289 807 808 
3	248 806 807 
3	31 805 806 
3	74 804 805 
3	7 803 804 
3	249 802 803 
3	72 801 802 
3	187 800 801 
3	86 799 800 
3	255 798 799 
3	28 797 798 
3	118 796 797 
3	153 795 796 
3	293 794 795 
3	331 793 794 
3	274 792 793 
3	106 791 792 
3	13 790 791 
3	222 789 790 
3	81 788 789 
3	73 787 788 
3	219 786 787 
3	154 785 786 
3	150 784 785 
3	338 783 784 
3	124 782 783 
3	287 781 782 
3	244 780 781 
3	166 779 780 
3	170 778 779 
3	131 777 778 
3	71 776 777 
3	1 775 776 
3	238 774 775 
3	336 773 774 
3	60 772 773 
3	79 771 772 
3	52 770 771 
3	246 769 770 
3	334 768 769 
3	12 767 768 
3	285 766 767 
3	345 765 766 
3	42 764 765 
3	316 763 764 
3	11 762 763 
3	344 761 762 
3	111 760 761 
3	270 759 760 
3	160 758 759 
3	319 757 758 
3	264 756 757 
3	325 755 756 
3	23 754 755 
3	85 753 754 
3	151 752 753 
3	259 751 752 
3	352 750 751 
3	230 749 750 
3	44 748 749 
3	167 747 748 
3	297 746 747 
3	120 745 746 
3	202 744 745 
3	263 743 744 
3	241 742 743 
3	195 741 742 
3	192 740 741 
3	211 739 740 
3	163 738 739 
3	98 737 738 
3	261 736 737 
3	320 735 736 
3	281 734 735 
3	148 733 734 
3	301 732 733 
3	309 731 732 
3	169 730 731 
3	208 729 730 
3	362 728 729 
3	277 727 728 
3	5 726 727 
3	32 725 726 
3	43 724 725 
3	39 723 724 
3	122 722 723 
3	251 721 722 
3	205 720 721 
3	330 719 720 
3	250 718 719 
3	24 717 718 
3	235 716 717 
3	353 715 716 
3	290 714 715 
3	224 713 714 
3	194 712 713 
3	359 711 712 
3	186 710 711 
3	103 709 710 
3	64 708 709 
3	61 707 708 
3	283 706 707 
3	20 705 706 
3	18 704 705 
3	8 703 704 
3	66 702 703 
3	34 701 702 
3	220 700 701 
3	232 699 700 
3	75 698 699 
3	197 697 698 
1	697 
3	131 271 696 
3	94 695 696 
3	179 694 695 
3	96 693 694 
3	143 692 693 
3	336 691 692 
3	60 690 691 
3	147 689 690 
3	79 688 689 
3	108 687 688 
3	69 686 687 
3	136 685 686 
3	252 684 685 
3	334 683 684 
3	246 682 683 
3	102 681 682 
3	56 680 681 
3	181 679 680 
3	12 678 679 
3	87 677 678 
3	231 676 677 
3	256 675 676 
3	204 674 675 
3	268 673 674 
3	168 672 673 
3	29 671 672 
3	269 670 671 
3	348 669 670 
3	104 668 669 
3	144 667 668 
3	6 666 667 
3	100 665 666 
3	199 664 665 
3	11 663 664 
3	355 662 663 
3	318 661 662 
3	337 660 661 
3	46 659 660 
3	80 658 659 
3	270 657 658 
3	142 656 657 
3	57 655 656 
3	41 654 655 
3	203 653 654 
3	58 652 653 
3	134 651 652 
3	198 650 651 
3	165 649 650 
3	4 648 649 
3	68 647 648 
3	350 646 647 
3	317 645 646 
3	97 644 645 
3	138 643 644 
3	217 642 643 
3	109 641 642 
3	259 640 641 
3	275 639 640 
3	83 638 639 
3	44 637 638 
3	297 636 637 
3	185 635 636 
3	47 634 635 
3	155 633 634 
3	241 632 633 
3	278 631 632 
3	180 630 631 
3	67 629 630 
3	119 628 629 
3	162 627 628 
3	36 626 627 
3	30 625 626 
3	76 624 625 
3	286 623 624 
3	214 622 623 
3	189 621 622 
3	88 620 621 
3	48 619 620 
3	314 618 619 
3	361 617 618 
3	281 616 617 
3	90 615 616 
3	175 614 615 
3	148 613 614 
3	140 612 613 
3	301 611 612 
3	288 610 611 
3	208 609 610 
3	129 608 609 
3	115 607 608 
3	302 606 607 
3	237 605 606 
3	257 604 605 
3	132 603 604 
3	32 602 603 
3	315 601 602 
3	50 600 601 
3	39 599 600 
3	190 598 599 
3	296 597 598 
3	205 596 597 
3	223 595 596 
3	262 594 595 
3	330 593 594 
3	323 592 593 
3	101 591 592 
3	113 590 591 
3	127 589 590 
3	245 588 589 
3	182 587 588 
3	55 586 587 
3	292 585 586 
3	265 584 585 
3	353 583 584 
3	19 582 583 
3	343 581 582 
3	54 580 581 
3	356 579 580 
3	303 578 579 
3	312 577 578 
3	229 576 577 
3	176 575 576 
3	194 574 575 
3	248 573 574 
3	31 572 573 
3	183 571 572 
3	196 570 571 
3	201 569 570 
3	139 568 569 
3	2 567 568 
3	308 566 567 
3	27 565 566 
3	159 564 565 
3	255 563 564 
3	65 562 563 
3	242 561 562 
3	14 560 561 
3	123 559 560 
3	161 558 559 
3	153 557 558 
3	293 556 557 
3	346 555 556 
3	228 554 555 
3	357 553 554 
3	25 552 553 
3	51 551 552 
3	234 550 551 
3	274 549 550 
3	222 548 549 
3	215 547 548 
3	178 546 547 
3	33 545 546 
3	73 544 545 
3	35 543 544 
3	351 542 543 
3	116 541 542 
3	365 540 541 
3	135 539 540 
3	287 538 539 
3	75 537 538 
3	339 536 537 
3	341 535 536 
1	535 
3	295 306 534 
1	534 
3	131 309 533 
3	112 532 533 
3	362 531 532 
3	129 530 531 
3	79 529 530 
3	92 528 529 
3	108 527 528 
3	5 526 527 
3	132 525 526 
3	334 524 525 
3	12 523 524 
3	296 522 523 
3	59 521 522 
3	294 520 521 
3	330 519 520 
3	26 518 519 
3	101 517 518 
3	144 516 517 
3	210 515 516 
3	130 514 515 
3	141 513 514 
3	353 512 513 
3	78 511 512 
3	270 510 511 
3	46 509 510 
3	152 508 509 
3	289 507 508 
3	312 506 507 
3	2 505 506 
3	213 504 505 
3	187 503 504 
3	255 502 503 
3	332 501 502 
3	217 500 501 
3	151 499 500 
3	174 498 499 
3	207 497 498 
3	293 496 497 
3	40 495 496 
3	15 494 495 
3	106 493 494 
3	243 492 493 
3	233 491 492 
3	291 490 491 
3	73 489 490 
3	189 488 489 
3	184 487 488 
3	349 486 487 
3	0 485 486 
3	128 484 485 
3	209 483 484 
1	483 
3	131 362 482 
3	129 481 482 
3	92 480 481 
3	132 479 480 
3	149 478 479 
3	207 477 478 
3	40 476 477 
3	12 475 476 
3	106 474 475 
3	243 473 474 
3	233 472 473 
3	172 471 472 
3	59 470 471 
3	26 469 470 
3	49 468 469 
3	144 467 468 
3	291 466 467 
3	130 465 466 
3	141 464 465 
3	353 463 464 
3	184 462 463 
3	270 461 462 
3	289 460 461 
3	349 459 460 
3	128 458 459 
3	125 457 458 
3	213 456 457 
3	325 455 456 
1	455 
3	86 101 454 
3	8 453 454 
3	344 452 453 
3	24 451 452 
3	107 450 451 
3	118 449 450 
3	321 448 449 
3	163 447 448 
3	150 446 447 
3	122 445 446 
3	7 444 445 
3	74 443 444 
3	249 442 443 
3	358 441 442 
3	316 440 441 
1	440 
3	45 280 439 
3	143 438 439 
3	159 437 438 
3	60 436 437 
3	255 435 436 
3	147 434 435 
3	247 433 434 
3	284 432 433 
3	217 431 432 
3	14 430 431 
3	136 429 430 
3	347 428 429 
3	145 427 428 
3	174 426 427 
3	12 425 426 
3	268 424 425 
3	106 423 424 
3	205 422 423 
3	47 421 422 
3	180 420 421 
3	306 419 420 
3	11 418 419 
3	157 417 418 
3	55 416 417 
3	210 415 416 
3	33 414 415 
3	214 413 414 
3	54 412 413 
3	298 411 412 
3	134 410 411 
3	248 409 410 
3	135 408 409 
3	209 407 408 
3	236 406 407 
1	406 
3	131 276 405 
3	37 404 405 
3	9 403 404 
3	177 402 403 
3	112 401 402 
3	362 400 401 
3	129 399 400 
3	92 398 399 
3	5 397 398 
3	3 396 397 
3	132 395 396 
3	149 394 395 
3	207 393 394 
3	40 392 393 
3	12 391 392 
3	106 390 391 
3	172 389 390 
3	233 388 389 
3	243 387 388 
3	59 386 387 
3	101 385 386 
3	26 384 385 
3	49 383 384 
3	144 382 383 
3	279 381 382 
3	291 380 381 
3	130 379 380 
3	141 378 379 
3	353 377 378 
3	184 376 377 
3	270 375 376 
3	289 374 375 
3	349 373 374 
3	239 372 373 
3	128 371 372 
3	126 370 371 
3	361 369 370 
3	125 368 369 
3	213 367 368 
3	325 366 367 
1	366 
1	94 
1	177 
1	147 
1	84 
1	69 
1	322 
1	56 
1	181 
1	256 
1	324 
1	294 
1	348 
1	110 
1	100 
1	210 
1	318 
1	130 
1	46 
1	80 
1	158 
1	58 
1	273 
1	68 
1	267 
1	333 
1	9 
1	193 
1	247 
1	317 
1	275 
1	83 
1	233 
1	185 
1	155 
1	180 
1	107 
1	295 
1	214 
1	21 
1	349 
1	327 
1	128 
1	191 
1	361 
1	129 
1	257 
1	89 
1	266 
1	133 
1	296 
1	335 
1	172 
1	262 
1	200 
1	329 
1	49 
1	127 
1	216 
1	91 
1	17 
1	292 
1	77 
1	19 
1	54 
1	218 
1	356 
1	10 
1	229 
1	212 
1	31 
1	74 
1	249 
1	37 
1	118 
1	174 
1	153 
1	293 
1	274 
1	81 
1	178 
1	219 
1	116 
1	365 
1	166 
1	71 
1	238 
1	96 
1	143 
1	336 
1	60 
1	79 
1	92 
1	164 
1	52 
1	364 
1	12 
1	231 
1	29 
1	42 
1	59 
1	316 
1	104 
1	26 
1	279 
1	344 
1	337 
1	57 
1	225 
1	41 
1	203 
1	239 
1	16 
1	165 
1	160 
1	319 
1	217 
1	151 
1	259 
1	109 
1	145 
1	352 
1	230 
1	44 
1	120 
1	263 
1	243 
1	241 
1	119 
1	189 
1	211 
1	260 
1	88 
1	281 
1	90 
1	175 
1	148 
1	140 
1	309 
1	301 
1	169 
1	208 
1	277 
1	115 
1	237 
1	5 
1	32 
1	43 
1	39 
1	122 
1	330 
1	113 
1	245 
1	24 
1	55 
1	156 
1	141 
1	265 
1	235 
1	353 
1	298 
1	152 
1	224 
1	22 
1	139 
1	2 
1	310 
1	27 
1	159 
1	114 
1	103 
1	14 
1	3 
1	82 
1	64 
1	161 
1	61 
1	346 
1	228 
1	25 
1	283 
1	234 
1	20 
1	8 
1	66 
1	215 
1	307 
1	34 
1	125 
1	75 
1	188 
1	197 
1	271 
1	282 
1	179 
1	108 
1	284 
1	252 
1	258 
1	149 
1	62 
1	268 
1	360 
1	204 
1	168 
1	340 
1	6 
1	199 
1	240 
1	306 
1	137 
1	171 
1	134 
1	38 
1	198 
1	311 
1	300 
1	254 
1	272 
1	332 
1	97 
1	138 
1	328 
1	304 
1	117 
1	146 
1	15 
1	121 
1	67 
1	313 
1	30 
1	206 
1	286 
1	70 
1	48 
1	314 
1	305 
1	253 
1	358 
1	276 
1	280 
1	302 
1	321 
1	53 
1	347 
1	132 
1	354 
1	105 
1	50 
1	93 
1	63 
1	223 
1	323 
1	101 
1	99 
1	182 
1	227 
1	173 
1	78 
1	343 
1	299 
1	303 
1	289 
1	312 
1	248 
1	7 
1	72 
1	308 
1	45 
1	187 
1	86 
1	255 
1	28 
1	65 
1	242 
1	207 
1	331 
1	326 
1	51 
1	106 
1	13 
1	222 
1	73 
1	184 
1	35 
1	351 
1	154 
1	150 
1	338 
1	124 
1	287 
1	244 
1	339 
1	131 
1	170 
1	1 
1	112 
1	136 
1	246 
1	334 
1	102 
1	87 
1	285 
1	345 
1	269 
1	144 
1	11 
1	355 
1	111 
1	270 
1	142 
1	363 
1	95 
1	4 
1	213 
1	264 
1	325 
1	23 
1	342 
1	85 
1	350 
1	40 
1	167 
1	297 
1	202 
1	47 
1	278 
1	162 
1	36 
1	76 
1	195 
1	192 
1	163 
1	98 
1	261 
1	320 
1	236 
1	288 
1	362 
1	315 
1	190 
1	251 
1	205 
1	250 
1	157 
1	290 
1	176 
1	194 
1	126 
1	183 
1	196 
1	201 
1	359 
1	186 
1	226 
1	123 
1	357 
1	18 
1	291 
1	33 
1	221 
1	0 
1	220 
1	135 
1	232 
1	209 
1	341 
0	

8
 1 0 0.1 0.9 0.5 0.5 0.05 0.95
8
 1 0 0 1 0.5 0 0.5 1
8
 1 0 0 1 0.5 0 0.5 1
8
 1 0 0 1 0.05 0 0.95 1
8
 1 0 0 1 0.5 0 0.5 1
8
 1 0 0 1 0.5 0 0.5 1
8
 1 0 0 1 0.2 0 0.8 1
8
 1 0 0 1 0.5 0 0.5 1
8
 1 0 0 1 0.5 0 0.5 1
8
 1 0 0 1 0.05 0 0.95 1
8
 1 0 0 1 0.01 0 0.99 1
8
 1 0 0 1 0.5 0 0.5 1
8
 1 0 0 1 0.3 0 0.7 1
8
 1 0 0 1 0.01 0 0.99 1
8
 1 0 0 1 0 0 1 1
8
 1 0 0 1 0.5 0 0.5 1
8
 1 0 0 1 0.2 0 0.8 1
2
 0.03 1
2
 0 0.8
8
 1 0 0.9 0.1 0.05 0.95 0.045 0.955
8
 1 0 0 1 0.9 0 0.1 1
8
 1 0 0 1 0.05 0 0.95 1
8
 1 0 0 1 0.05 0 0.95 1
8
 1 0 0 1 0.05 0 0.95 1
8
 1 0 0 1 0.9 0 0.1 1
8
 1 0 0 1 0.05 0 0.95 1
8
 1 0 0 1 0.3 0 0.7 1
8
 1 0 0 1 0.1 0 0.9 1
8
 1 0 0 1 0.9 0 0.1 1
8
 1 0 0 1 0.3 0 0.7 1
8
 1 0 0 1 0.05 0 0.95 1
8
 1 0 0 1 0.05 0 0.95 1
8
 1 0 0 1 0.3 0 0.7 1
8
 1 0 0 1 0.05 0 0.95 1
8
 1 0 0 1 0.05 0 0.95 1
8
 1 0 0 1 0.05 0 0.95 1
8
 1 0 0 1 0.05 0 0.95 1
8
 1 0 0 1 0.5 0 0.5 1
8
 1 0 0 1 0.3 0 0.7 1
8
 1 0 0 1 0.5 0 0.5 1
8
 1 0 0 1 0.9 0 0.1 1
8
 1 0 0 1 0.05 0 0.95 1
8
 1 0 0 1 0.3 0 0.7 1
8
 1 0 0 1 0.05 0 0.95 1
8
 1 0 0 1 0.05 0 0.95 1
8
 1 0 0 1 0.05 0 0.95 1
8
 1 0 0 1 0.05 0 0.95 1
8
 1 0 0 1 0.5 0 0.5 1
8
 1 0 0 1 0.4 0 0.6 1
8
 1 0 0 1 0.9 0 0.1 1
8
 1 0 0 1 0.5 0 0.5 1
8
 1 0 0 1 0.7 0 0.3 1
8
 1 0 0 1 0.01 0 0.99 1
8
 1 0 0 1 0.9 0 0.1 1
8
 1 0 0 1 0.9 0 0.1 1
8
 1 0 0 1 0.05 0 0.95 1
8
 1 0 0 1 0.4 0 0.6 1
8
 1 0 0 1 0.9 0 0.1 1
8
 1 0 0 1 0.9 0 0.1 1
8
 1 0 0 1 0.75 0 0.25 1
8
 1 0 0 1 0.05 0 0.95 1
8
 1 0 0 1 0.05 0 0.95 1
8
 1 0 0 1 0.3 0 0.7 1
8
 1 0 0 1 0.9 0 0.1 1
8
 1 0 0 1 0.5 0 0.5 1
8
 1 0 0 1 0.9 0 0.1 1
8
 1 0 0 1 0.3 0 0.7 1
8
 1 0 0 1 0.5 0 0.5 1
8
 1 0 0 1 0.05 0 0.95 1
8
 1 0 0 1 0.9 0 0.1 1
8
 1 0 0 1 0.5 0 0.5 1
8
 1 0 0 1 0.9 0 0.1 1
8
 1 0 0 1 0.9 0 0.1 1
8
 1 0 0 1 0.9 0 0.1 1
8
 1 0 0 1 0.05 0 0.95 1
8
 1 0 0 1 0.05 0 0.95 1
8
 1 0 0 1 0.05 0 0.95 1
8
 1 0 0 1 0.05 0 0.95 1
8
 1 0 0 1 0.05 0 0.95 1
8
 1 0 0 1 0.05 0 0.95 1
8
 1 0 0 1 0.3 0 0.7 1
8
 1 0 0 1 0.05 0 0.95 1
8
 1 0 0 1 0.05 0 0.95 1
8
 1 0 0 1 0.9 0 0.1 1
8
 1 0 0 1 0.3 0 0.7 1
8
 1 0 0 1 0.5 0 0.5 1
8
 1 0 0 1 0.05 0 0.95 1
8
 1 0 0 1 0.1 0 0.9 1
8
 1 0 0 1 0.9 0 0.1 1
8
 1 0 0 1 0.89 0 0.11 1
8
 1 0 0 1 0.05 0 0.95 1
8
 1 0 0 1 0.9 0 0.1 1
8
 1 0 0 1 0.89 0 0.11 1
8
 1 0 0 1 0.05 0 0.95 1
8
 1 0 0 1 0.09 0 0.91 1
8
 1 0 0 1 0.05 0 0.95 1
8
 1 0 0 1 0.02 0 0.98 1
8
 1 0 0 1 0.05 0 0.95 1
8
 1 0 0 1 0.2 0 0.8 1
8
 1 0 0 1 0.05 0 0.95 1
8
 1 0 0 1 0.05 0 0.95 1
8
 1 0 0 1 0.3 0 0.7 1
8
 1 0 0 1 0.05 0 0.95 1
8
 1 0 0 1 0.4 0 0.6 1
8
 1 0 0 1 0.05 0 0.95 1
8
 1 0 0 1 0.05 0 0.95 1
8
 1 0 0 1 0.9 0 0.1 1
8
 1 0 0 1 0.05 0 0.95 1
2
 0.03 1
2
 0.03 0.709
8
 1 0 0 1 0 1 0 1
8
 1 0 0 1 0 0 1 1
8
 1 0 0 1 0 0 1 1
8
 1 0 0 1 0 0 1 1
8
 1 0 0 1 0 0 1 1
8
 1 0 0 1 0 0 1 1
8
 1 0 0 1 0 0 1 1
8
 1 0 0 1 0 0 1 1
8
 1 0 0 1 0 0 1 1
8
 1 0 0 1 0 0 1 1
8
 1 0 0 1 0 0 1 1
8
 1 0 0 1 0 0 1 1
8
 1 0 0 1 0 0 1 1
8
 1 0 0 1 0 0 1 1
8
 1 0 0 1 0 0 1 1
8
 1 0 0 1 0 0 1 1
8
 1 0 0 1 0 0 1 1
8
 1 0 0 1 0 0 1 1
8
 1 0 0 1 0 0 1 1
8
 1 0 0 1 0 0 1 1
8
 1 0 0 1 0 0 1 1
8
 1 0 0 1 0 0 1 1
8
 1 0 0 1 0 0 1 1
8
 1 0 0 1 0 0 1 1
8
 1 0 0 1 0 0 1 1
8
 1 0 0 1 0 0 1 1
8
 1 0 0 1 0 0 1 1
8
 1 0 0 1 0 0 1 1
8
 1 0 0 1 0 0 1 1
8
 1 0 0 1 0 0 1 1
8
 1 0 0 1 0 0 1 1
8
 1 0 0 1 0 0 1 1
8
 1 0 0 1 0 0 1 1
8
 1 0 0 1 0 0 1 1
8
 1 0 0 1 0 0 1 1
8
 1 0 0 1 0 0 1 1
8
 1 0 0 1 0 0 1 1
8
 1 0 0 1 0 0 1 1
8
 1 0 0 1 0 0 1 1
8
 1 0 0 1 0 0 1 1
8
 1 0 0 1 0 0 1 1
8
 1 0 0 1 0 0 1 1
8
 1 0 0 1 0 0 1 1
8
 1 0 0 1 0 0 1 1
8
 1 0 0 1 0 0 1 1
8
 1 0 0 1 0 0 1 1
8
 1 0 0 1 0 0 1 1
8
 1 0 0 1 0 0 1 1
8
 1 0 0 1 0 0 1 1
8
 1 0 0 1 0 0 1 1
8
 1 0 0 1 0 0 1 1
8
 1 0 0 1 0 0 1 1
8
 1 0 0 1 0 0 1 1
8
 1 0 0 1 0 0 1 1
8
 1 0 0 1 0 0 1 1
8
 1 0 0 1 0 0 1 1
8
 1 0 0 1 0 0 1 1
8
 1 0 0 1 0 0 1 1
2
 0.03 1
8
 1 0 0.3 0.7 0.5 0.5 0.15 0.85
8
 1 0 0 1 0.01 0 0.99 1
2
 0.03 1
8
 1 0 0.4 0.6 0.6 0.4 0.24 0.76
8
 1 0 0 1 0.02 0 0.98 1
8
 1 0 0 1 0.6 0 0.4 1
8
 1 0 0 1 0 0 1 1
8
 1 0 0 1 0.4 0 0.6 1
8
 1 0 0 1 0.5 0 0.5 1
8
 1 0 0 1 0.5 0 0.5 1
8
 1 0 0 1 0.89 0 0.11 1
8
 1 0 0 1 0.4 0 0.6 1
8
 1 0 0 1 0.4 0 0.6 1
8
 1 0 0 1 0.02 0 0.98 1
8
 1 0 0 1 0.4 0 0.6 1
8
 1 0 0 1 0.4 0 0.6 1
8
 1 0 0 1 0.4 0 0.6 1
8
 1 0 0 1 0.89 0 0.11 1
8
 1 0 0 1 0.1 0 0.9 1
8
 1 0 0 1 0.05 0 0.95 1
8
 1 0 0 1 0.02 0 0.98 1
8
 1 0 0 1 0.4 0 0.6 1
8
 1 0 0 1 0.01 0 0.99 1
8
 1 0 0 1 0.4 0 0.6 1
8
 1 0 0 1 0 0 1 1
8
 1 0 0 1 0.4 0 0.6 1
8
 1 0 0 1 0.05 0 0.95 1
8
 1 0 0 1 0.4 0 0.6 1
8
 1 0 0 1 0.1 0 0.9 1
2
 0.03 1
8
 1 0 0 1 0 1 0 1
8
 1 0 0 1 0 0 1 1
8
 1 0 0 1 0 0 1 1
2
 0.03 1
8
 1 0 0 1 0.9 0.1 0 1
8
 1 0 0 1 0.2 0 0.8 1
8
 1 0 0 1 0.4 0 0.6 1
8
 1 0 0 1 0.5 0 0.5 1
8
 1 0 0 1 0 0 1 1
8
 1 0 0 1 0.9 0 0.1 1
8
 1 0 0 1 0.5 0 0.5 1
8
 1 0 0 1 0.89 0 0.11 1
8
 1 0 0 1 0.5 0 0.5 1
8
 1 0 0 1 0 0 1 1
8
 1 0 0 1 0.89 0 0.11 1
8
 1 0 0 1 0.5 0 0.5 1
8
 1 0 0 1 0.2 0 0.8 1
8
 1 0 0 1 0.4 0 0.6 1
8
 1 0 0 1 0.1 0 0.9 1
8
 1 0 0 1 0.5 0 0.5 1
8
 1 0 0 1 0.5 0 0.5 1
8
 1 0 0 1 0.1 0 0.9 1
8
 1 0 0 1 0 0 1 1
8
 1 0 0 1 0.5 0 0.5 1
8
 1 0 0 1 0.01 0 0.99 1
8
 1 0 0 1 0 0 1 1
8
 1 0 0 1 0 0 1 1
8
 1 0 0 1 0 0 1 1
8
 1 0 0 1 0.5 0 0.5 1
8
 1 0 0 1 0.9 0 0.1 1
8
 1 0 0 1 0.5 0 0.5 1
8
 1 0 0 1 0 0 1 1
8
 1 0 0 1 0.5 0 0.5 1
8
 1 0 0 1 0.9 0 0.1 1
8
 1 0 0 1 0.5 0 0.5 1
8
 1 0 0 1 0.1 0 0.9 1
8
 1 0 0 1 0 0 1 1
8
 1 0 0 1 0.1 0 0.9 1
8
 1 0 0 1 0.5 0 0.5 1
8
 1 0 0 1 0.9 0 0.1 1
8
 1 0 0 1 0.5 0 0.5 1
8
 1 0 0 1 0.5 0 0.5 1
8
 1 0 0 1 0.9 0 0.1 1
8
 1 0 0 1 0.09 0 0.91 1
8
 1 0 0 1 0.5 0 0.5 1
8
 1 0 0 1 0.1 0 0.9 1
8
 1 0 0 1 0.5 0 0.5 1
8
 1 0 0 1 0.5 0 0.5 1
8
 1 0 0 1 0.9 0 0.1 1
8
 1 0 0 1 0.09 0 0.91 1
8
 1 0 0 1 0.5 0 0.5 1
8
 1 0 0 1 0.5 0 0.5 1
8
 1 0 0 1 0 0 1 1
8
 1 0 0 1 0.5 0 0.5 1
8
 1 0 0 1 0 0 1 1
8
 1 0 0 1 0 0 1 1
8
 1 0 0 1 0.5 0 0.5 1
8
 1 0 0 1 0.1 0 0.9 1
8
 1 0 0 1 0.5 0 0.5 1
8
 1 0 0 1 0.57 0 0.43 1
8
 1 0 0 1 0 0 1 1
8
 1 0 0 1 0 0 1 1
8
 1 0 0 1 0.5 0 0.5 1
8
 1 0 0 1 0.5 0 0.5 1
8
 1 0 0 1 0.9 0 0.1 1
8
 1 0 0 1 0 0 1 1
8
 1 0 0 1 0.5 0 0.5 1
8
 1 0 0 1 0.1 0 0.9 1
8
 1 0 0 1 0.5 0 0.5 1
8
 1 0 0 1 0.1 0 0.9 1
8
 1 0 0 1 0.5 0 0.5 1
8
 1 0 0 1 0.4 0 0.6 1
8
 1 0 0 1 0.5 0 0.5 1
8
 1 0 0 1 0 0 1 1
8
 1 0 0 1 0.5 0 0.5 1
8
 1 0 0 1 0.9 0 0.1 1
8
 1 0 0 1 0.5 0 0.5 1
8
 1 0 0 1 0.89 0 0.11 1
8
 1 0 0 1 0.5 0 0.5 1
8
 1 0 0 1 0.5 0 0.5 1
8
 1 0 0 1 0.5 0 0.5 1
8
 1 0 0 1 0.4 0 0.6 1
8
 1 0 0 1 0.5 0 0.5 1
8
 1 0 0 1 0 0 1 1
8
 1 0 0 1 0.1 0 0.9 1
8
 1 0 0 1 0.6 0 0.4 1
8
 1 0 0 1 0.5 0 0.5 1
8
 1 0 0 1 0.1 0 0.9 1
8
 1 0 0 1 0.4 0 0.6 1
8
 1 0 0 1 0.5 0 0.5 1
8
 1 0 0 1 0 0 1 1
8
 1 0 0 1 0 0 1 1
8
 1 0 0 1 0.1 0 0.9 1
8
 1 0 0 1 0.59 0 0.41 1
8
 1 0 0 1 0 0 1 1
8
 1 0 0 1 0.4 0 0.6 1
8
 1 0 0 1 0 0 1 1
8
 1 0 0 1 0.5 0 0.5 1
8
 1 0 0 1 0.9 0 0.1 1
8
 1 0 0 1 0.5 0 0.5 1
8
 1 0 0 1 0 0 1 1
8
 1 0 0 1 0 0 1 1
8
 1 0 0 1 0.9 0 0.1 1
8
 1 0 0 1 0.6 0 0.4 1
8
 1 0 0 1 0.4 0 0.6 1
8
 1 0 0 1 0.5 0 0.5 1
8
 1 0 0 1 0.1 0 0.9 1
8
 1 0 0 1 0.4 0 0.6 1
8
 1 0 0 1 0 0 1 1
8
 1 0 0 1 0.5 0 0.5 1
8
 1 0 0 1 0.09 0 0.91 1
8
 1 0 0 1 0 0 1 1
8
 1 0 0 1 0 0 1 1
8
 1 0 0 1 0 0 1 1
8
 1 0 0 1 0 0 1 1
8
 1 0 0 1 0 0 1 1
8
 1 0 0 1 0.5 0 0.5 1
8
 1 0 0 1 0.5 0 0.5 1
8
 1 0 0 1 0.5 0 0.5 1
8
 1 0 0 1 0.5 0 0.5 1
8
 1 0 0 1 0.5 0 0.5 1
8
 1 0 0 1 0 0 1 1
8
 1 0 0 1 0.5 0 0.5 1
8
 1 0 0 1 0.4 0 0.6 1
8
 1 0 0 1 0.5 0 0.5 1
8
 1 0 0 1 0.7 0 0.3 1
8
 1 0 0 1 0.5 0 0.5 1
8
 1 0 0 1 0.89 0 0.11 1
8
 1 0 0 1 0.5 0 0.5 1
8
 1 0 0 1 0.9 0 0.1 1
8
 1 0 0 1 0 0 1 1
8
 1 0 0 1 0.9 0 0.1 1
8
 1 0 0 1 0.5 0 0.5 1
8
 1 0 0 1 0.5 0 0.5 1
8
 1 0 0 1 0 0 1 1
8
 1 0 0 1 0.75 0 0.25 1
8
 1 0 0 1 0 0 1 1
8
 1 0 0 1 0.09 0 0.91 1
8
 1 0 0 1 0.5 0 0.5 1
8
 1 0 0 1 0.5 0 0.5 1
8
 1 0 0 1 0 0 1 1
8
 1 0 0 1 0.9 0 0.1 1
8
 1 0 0 1 0.7 0 0.3 1
8
 1 0 0 1 0.4 0 0.6 1
8
 1 0 0 1 0.5 0 0.5 1
8
 1 0 0 1 0.1 0 0.9 1
8
 1 0 0 1 0 0 1 1
8
 1 0 0 1 0.6 0 0.4 1
8
 1 0 0 1 0.5 0 0.5 1
8
 1 0 0 1 0.4 0 0.6 1
8
 1 0 0 1 0.9 0 0.1 1
8
 1 0 0 1 0.5 0 0.5 1
8
 1 0 0 1 0.9 0 0.1 1
8
 1 0 0 1 0 0 1 1
8
 1 0 0 1 0 0 1 1
8
 1 0 0 1 0 0 1 1
8
 1 0 0 1 0.4 0 0.6 1
8
 1 0 0 1 0 0 1 1
8
 1 0 0 1 0.09 0 0.91 1
8
 1 0 0 1 0 0 1 1
8
 1 0 0 1 0.9 0 0.1 1
8
 1 0 0 1 0.5 0 0.5 1
8
 1 0 0 1 0 0 1 1
8
 1 0 0 1 0.9 0 0.1 1
8
 1 0 0 1 0.9 0 0.1 1
8
 1 0 0 1 0 0 1 1
8
 1 0 0 1 0.05 0 0.95 1
8
 1 0 0 1 0.5 0 0.5 1
8
 1 0 0 1 0.5 0 0.5 1
8
 1 0 0 1 0 0 1 1
8
 1 0 0 1 0.5 0 0.5 1
8
 1 0 0 1 0 0 1 1
8
 1 0 0 1 0.1 0 0.9 1
8
 1 0 0 1 0 0 1 1
8
 1 0 0 1 0.5 0 0.5 1
8
 1 0 0 1 0 0 1 1
8
 1 0 0 1 0 0 1 1
8
 1 0 0 1 0.9 0 0.1 1
8
 1 0 0 1 0.01 0 0.99 1
2
 0.03 1
8
 1 0 0.9 0.1 0.9 0.1 0.81 0.19
8
 1 0 0 1 0 0 1 1
8
 1 0 0 1 0.3 0 0.7 1
8
 1 0 0 1 0.05 0 0.95 1
8
 1 0 0 1 0.5 0 0.5 1
8
 1 0 0 1 0.9 0 0.1 1
8
 1 0 0 1 0 0 1 1
8
 1 0 0 1 0.5 0 0.5 1
8
 1 0 0 1 0.5 0 0.5 1
8
 1 0 0 1 0.5 0 0.5 1
8
 1 0 0 1 0.89 0 0.11 1
8
 1 0 0 1 0.9 0 0.1 1
8
 1 0 0 1 0.9 0 0.1 1
8
 1 0 0 1 0.5 0 0.5 1
8
 1 0 0 1 0.9 0 0.1 1
8
 1 0 0 1 0.9 0 0.1 1
8
 1 0 0 1 0.9 0 0.1 1
8
 1 0 0 1 0 0 1 1
8
 1 0 0 1 0 0 1 1
8
 1 0 0 1 0.89 0 0.11 1
8
 1 0 0 1 0.9 0 0.1 1
8
 1 0 0 1 0.9 0 0.1 1
8
 1 0 0 1 0.5 0 0.5 1
8
 1 0 0 1 0.05 0 0.95 1
8
 1 0 0 1 0.89 0 0.11 1
8
 1 0 0 1 0.9 0 0.1 1
8
 1 0 0 1 0.4 0 0.6 1
8
 1 0 0 1 0.9 0 0.1 1
8
 1 0 0 1 0.9 0 0.1 1
8
 1 0 0 1 0.8 0 0.2 1
8
 1 0 0 1 0.9 0 0.1 1
8
 1 0 0 1 0.94 0 0.06 1
8
 1 0 0 1 0.5 0 0.5 1
8
 1 0 0 1 0 0 1 1
8
 1 0 0 1 0.89 0 0.11 1
8
 1 0 0 1 0.3 0 0.7 1
8
 1 0 0 1 0.02 0 0.98 1
8
 1 0 0 1 0.5 0 0.5 1
8
 1 0 0 1 0.9 0 0.1 1
8
 1 0 0 1 0.9 0 0.1 1
8
 1 0 0 1 0.3 0 0.7 1
8
 1 0 0 1 0.9 0 0.1 1
8
 1 0 0 1 0.9 0 0.1 1
8
 1 0 0 1 0.5 0 0.5 1
8
 1 0 0 1 0.3 0 0.7 1
8
 1 0 0 1 0.09 0 0.91 1
8
 1 0 0 1 0.3 0 0.7 1
8
 1 0 0 1 0.9 0 0.1 1
8
 1 0 0 1 0.9 0 0.1 1
8
 1 0 0 1 0.3 0 0.7 1
8
 1 0 0 1 0.94 0 0.06 1
8
 1 0 0 1 0.5 0 0.5 1
8
 1 0 0 1 0.9 0 0.1 1
8
 1 0 0 1 0.79 0 0.21 1
8
 1 0 0 1 0.5 0 0.5 1
8
 1 0 0 1 0.5 0 0.5 1
8
 1 0 0 1 0.5 0 0.5 1
8
 1 0 0 1 0.9 0 0.1 1
8
 1 0 0 1 0.01 0 0.99 1
8
 1 0 0 1 0.89 0 0.11 1
8
 1 0 0 1 0.8 0 0.2 1
8
 1 0 0 1 0.3 0 0.7 1
8
 1 0 0 1 0.89 0 0.11 1
8
 1 0 0 1 0.9 0 0.1 1
8
 1 0 0 1 0.9 0 0.1 1
8
 1 0 0 1 0.85 0 0.15 1
8
 1 0 0 1 0.89 0 0.11 1
8
 1 0 0 1 0.89 0 0.11 1
8
 1 0 0 1 0.8 0 0.2 1
8
 1 0 0 1 0.89 0 0.11 1
8
 1 0 0 1 0.3 0 0.7 1
8
 1 0 0 1 0.8 0 0.2 1
8
 1 0 0 1 0.9 0 0.1 1
8
 1 0 0 1 0.9 0 0.1 1
8
 1 0 0 1 0.5 0 0.5 1
8
 1 0 0 1 0.5 0 0.5 1
8
 1 0 0 1 0.9 0 0.1 1
8
 1 0 0 1 0.8 0 0.2 1
8
 1 0 0 1 0.01 0 0.99 1
8
 1 0 0 1 0.9 0 0.1 1
8
 1 0 0 1 0.9 0 0.1 1
8
 1 0 0 1 0.9 0 0.1 1
8
 1 0 0 1 0.8 0 0.2 1
8
 1 0 0 1 0.7 0 0.3 1
8
 1 0 0 1 0.2 0 0.8 1
8
 1 0 0 1 0.05 0 0.95 1
8
 1 0 0 1 0.8 0 0.2 1
8
 1 0 0 1 0.89 0 0.11 1
8
 1 0 0 1 0.9 0 0.1 1
8
 1 0 0 1 0.3 0 0.7 1
8
 1 0 0 1 0.9 0 0.1 1
8
 1 0 0 1 0.9 0 0.1 1
8
 1 0 0 1 0.5 0 0.5 1
8
 1 0 0 1 0.9 0 0.1 1
8
 1 0 0 1 0.5 0 0.5 1
8
 1 0 0 1 0 0 1 1
8
 1 0 0 1 0.4 0 0.6 1
8
 1 0 0 1 0.9 0 0.1 1
8
 1 0 0 1 0.3 0 0.7 1
8
 1 0 0 1 0.8 0 0.2 1
8
 1 0 0 1 0 0 1 1
8
 1 0 0 1 0.89 0 0.11 1
8
 1 0 0 1 0.3 0 0.7 1
8
 1 0 0 1 0.5 0 0.5 1
8
 1 0 0 1 0.8 0 0.2 1
8
 1 0 0 1 0.61 0 0.39 1
8
 1 0 0 1 0.86 0 0.14 1
8
 1 0 0 1 0.9 0 0.1 1
8
 1 0 0 1 0.94 0 0.06 1
8
 1 0 0 1 0.3 0 0.7 1
8
 1 0 0 1 0.01 0 0.99 1
8
 1 0 0 1 0.9 0 0.1 1
8
 1 0 0 1 0.9 0 0.1 1
8
 1 0 0 1 0.9 0 0.1 1
8
 1 0 0 1 0.9 0 0.1 1
8
 1 0 0 1 0.5 0 0.5 1
8
 1 0 0 1 0.1 0 0.9 1
8
 1 0 0 1 0.9 0 0.1 1
8
 1 0 0 1 0.9 0 0.1 1
8
 1 0 0 1 0.9 0 0.1 1
8
 1 0 0 1 0.9 0 0.1 1
8
 1 0 0 1 0 0 1 1
8
 1 0 0 1 0.9 0 0.1 1
8
 1 0 0 1 0.5 0 0.5 1
8
 1 0 0 1 0.5 0 0.5 1
8
 1 0 0 1 0.1 0 0.9 1
8
 1 0 0 1 0 0 1 1
8
 1 0 0 1 0 0 1 1
8
 1 0 0 1 0.3 0 0.7 1
8
 1 0 0 1 0.5 0 0.5 1
8
 1 0 0 1 0.2 0 0.8 1
8
 1 0 0 1 0.9 0 0.1 1
8
 1 0 0 1 0.5 0 0.5 1
8
 1 0 0 1 0.89 0 0.11 1
8
 1 0 0 1 0.8 0 0.2 1
8
 1 0 0 1 0.89 0 0.11 1
8
 1 0 0 1 0.89 0 0.11 1
8
 1 0 0 1 0.89 0 0.11 1
8
 1 0 0 1 0.9 0 0.1 1
8
 1 0 0 1 0.5 0 0.5 1
8
 1 0 0 1 0.5 0 0.5 1
8
 1 0 0 1 0.3 0 0.7 1
8
 1 0 0 1 0.9 0 0.1 1
8
 1 0 0 1 0.8 0 0.2 1
8
 1 0 0 1 0.8 0 0.2 1
8
 1 0 0 1 0.5 0 0.5 1
8
 1 0 0 1 0.8 0 0.2 1
8
 1 0 0 1 0.01 0 0.99 1
8
 1 0 0 1 0.5 0 0.5 1
8
 1 0 0 1 0.9 0 0.1 1
8
 1 0 0 1 0 0 1 1
8
 1 0 0 1 0.3 0 0.7 1
8
 1 0 0 1 0.5 0 0.5 1
8
 1 0 0 1 0.4 0 0.6 1
8
 1 0 0 1 0.8 0 0.2 1
8
 1 0 0 1 0.9 0 0.1 1
8
 1 0 0 1 0.9 0 0.1 1
8
 1 0 0 1 0.89 0 0.11 1
8
 1 0 0 1 0.2 0 0.8 1
8
 1 0 0 1 0.9 0 0.1 1
8
 1 0 0 1 0.89 0 0.11 1
8
 1 0 0 1 0.94 0 0.06 1
2
 0.03 1
8
 1 0 0.1 0.9 0.09 0.91 0.009 0.991
2
 0.03 1
8
 1 0 0.5 0.5 0.2 0.8 0.1 0.9
8
 1 0 0 1 0.6 0 0.4 1
8
 1 0 0 1 0.4 0 0.6 1
8
 1 0 0 1 0.5 0 0.5 1
8
 1 0 0 1 0.4 0 0.6 1
8
 1 0 0 1 0.5 0 0.5 1
8
 1 0 0 1 0.4 0 0.6 1
8
 1 0 0 1 0.1 0 0.9 1
8
 1 0 0 1 0.5 0 0.5 1
8
 1 0 0 1 0.4 0 0.6 1
8
 1 0 0 1 0.7 0 0.3 1
8
 1 0 0 1 0.5 0 0.5 1
8
 1 0 0 1 0.2 0 0.8 1
8
 1 0 0 1 0.5 0 0.5 1
8
 1 0 0 1 0.4 0 0.6 1
8
 1 0 0 1 0.1 0 0.9 1
8
 1 0 0 1 0.75 0 0.25 1
8
 1 0 0 1 0.2 0 0.8 1
8
 1 0 0 1 0.1 0 0.9 1
8
 1 0 0 1 0.5 0 0.5 1
8
 1 0 0 1 0.5 0 0.5 1
8
 1 0 0 1 0.2 0 0.8 1
8
 1 0 0 1 0.9 0 0.1 1
8
 1 0 0 1 0.5 0 0.5 1
8
 1 0 0 1 0.4 0 0.6 1
8
 1 0 0 1 0.5 0 0.5 1
8
 1 0 0 1 0.2 0 0.8 1
8
 1 0 0 1 0.5 0 0.5 1
8
 1 0 0 1 0.5 0 0.5 1
8
 1 0 0 1 0.5 0 0.5 1
8
 1 0 0 1 0.4 0 0.6 1
8
 1 0 0 1 0.89 0 0.11 1
8
 1 0 0 1 0.5 0 0.5 1
8
 1 0 0 1 0.5 0 0.5 1
8
 1 0 0 1 0.9 0 0.1 1
8
 1 0 0 1 0.1 0 0.9 1
8
 1 0 0 1 0.1 0 0.9 1
8
 1 0 0 1 0.4 0 0.6 1
8
 1 0 0 1 0.2 0 0.8 1
8
 1 0 0 1 0.4 0 0.6 1
8
 1 0 0 1 0.5 0 0.5 1
8
 1 0 0 1 0.2 0 0.8 1
8
 1 0 0 1 0.2 0 0.8 1
8
 1 0 0 1 0.2 0 0.8 1
8
 1 0 0 1 0.4 0 0.6 1
8
 1 0 0 1 0.5 0 0.5 1
8
 1 0 0 1 0.1 0 0.9 1
8
 1 0 0 1 0.05 0 0.95 1
8
 1 0 0 1 0.6 0 0.4 1
8
 1 0 0 1 0.5 0 0.5 1
8
 1 0 0 1 0.5 0 0.5 1
2
 0.03 1
8
 1 0 0.2 0.8 0.5 0.5 0.1 0.9
8
 1 0 0 1 0.5 0 0.5 1
8
 1 0 0 1 0.5 0 0.5 1
8
 1 0 0 1 0.5 0 0.5 1
8
 1 0 0 1 0.1 0 0.9 1
8
 1 0 0 1 0.05 0 0.95 1
8
 1 0 0 1 0.5 0 0.5 1
8
 1 0 0 1 0.6 0 0.4 1
8
 1 0 0 1 0.1 0 0.9 1
8
 1 0 0 1 0.5 0 0.5 1
8
 1 0 0 1 0.01 0 0.99 1
8
 1 0 0 1 0.1 0 0.9 1
8
 1 0 0 1 0.5 0 0.5 1
8
 1 0 0 1 0.1 0 0.9 1
8
 1 0 0 1 0.09 0 0.91 1
8
 1 0 0 1 0.5 0 0.5 1
8
 1 0 0 1 0.5 0 0.5 1
8
 1 0 0 1 0.5 0 0.5 1
8
 1 0 0 1 0.5 0 0.5 1
8
 1 0 0 1 0.2 0 0.8 1
8
 1 0 0 1 0.05 0 0.95 1
8
 1 0 0 1 0.5 0 0.5 1
8
 1 0 0 1 0.5 0 0.5 1
8
 1 0 0 1 0.05 0 0.95 1
8
 1 0 0 1 0.5 0 0.5 1
8
 1 0 0 1 0.5 0 0.5 1
8
 1 0 0 1 0.5 0 0.5 1
8
 1 0 0 1 0.1 0 0.9 1
2
 0.03 1
8
 1 0 0.57 0.43 0.5 0.5 0.285 0.715
8
 1 0 0 1 0.1 0 0.9 1
8
 1 0 0 1 0.09 0 0.91 1
8
 1 0 0 1 0.5 0 0.5 1
8
 1 0 0 1 0.1 0 0.9 1
8
 1 0 0 1 0.5 0 0.5 1
8
 1 0 0 1 0.5 0 0.5 1
8
 1 0 0 1 0.5 0 0.5 1
8
 1 0 0 1 0.01 0 0.99 1
8
 1 0 0 1 0.5 0 0.5 1
8
 1 0 0 1 0.5 0 0.5 1
8
 1 0 0 1 0.4 0 0.6 1
8
 1 0 0 1 0.1 0 0.9 1
8
 1 0 0 1 0.01 0 0.99 1
8
 1 0 0 1 0.2 0 0.8 1
2
 0.03 1
8
 1 0 0.2 0.8 0.5 0.5 0.1 0.9
8
 1 0 0 1 0.5 0 0.5 1
8
 1 0 0 1 0.5 0 0.5 1
8
 1 0 0 1 0.01 0 0.99 1
8
 1 0 0 1 0.89 0 0.11 1
8
 1 0 0 1 0.5 0 0.5 1
8
 1 0 0 1 0.5 0 0.5 1
8
 1 0 0 1 0.1 0 0.9 1
8
 1 0 0 1 0.5 0 0.5 1
8
 1 0 0 1 0.89 0 0.11 1
8
 1 0 0 1 0.9 0 0.1 1
8
 1 0 0 1 0.5 0 0.5 1
8
 1 0 0 1 0 0 1 1
8
 1 0 0 1 0.5 0 0.5 1
8
 1 0 0 1 0.01 0 0.99 1
8
 1 0 0 1 0.5 0 0.5 1
8
 1 0 0 1 0.9 0 0.1 1
8
 1 0 0 1 0.01 0 0.99 1
8
 1 0 0 1 0.89 0 0.11 1
8
 1 0 0 1 0.89 0 0.11 1
8
 1 0 0 1 0.5 0 0.5 1
8
 1 0 0 1 0.01 0 0.99 1
8
 1 0 0 1 0.5 0 0.5 1
8
 1 0 0 1 0.01 0 0.99 1
8
 1 0 0 1 0.5 0 0.5 1
8
 1 0 0 1 0.3 0 0.7 1
8
 1 0 0 1 0.5 0 0.5 1
8
 1 0 0 1 0.1 0 0.9 1
8
 1 0 0 1 0.5 0 0.5 1
8
 1 0 0 1 0.09 0 0.91 1
8
 1 0 0 1 0.5 0 0.5 1
8
 1 0 0 1 0.89 0 0.11 1
8
 1 0 0 1 0.5 0 0.5 1
8
 1 0 0 1 0 0 1 1
2
 0.03 1
8
 1 0 0.5 0.5 0.5 0.5 0.25 0.75
8
 1 0 0 1 0.8 0 0.2 1
8
 1 0 0 1 0.9 0 0.1 1
8
 1 0 0 1 0.01 0 0.99 1
8
 1 0 0 1 0.6 0 0.4 1
8
 1 0 0 1 0.4 0 0.6 1
8
 1 0 0 1 0.5 0 0.5 1
8
 1 0 0 1 0.5 0 0.5 1
8
 1 0 0 1 0.1 0 0.9 1
8
 1 0 0 1 0.6 0 0.4 1
8
 1 0 0 1 0.5 0 0.5 1
8
 1 0 0 1 0.1 0 0.9 1
8
 1 0 0 1 0.1 0 0.9 1
8
 1 0 0 1 0.5 0 0.5 1
8
 1 0 0 1 0.6 0 0.4 1
8
 1 0 0 1 0.1 0 0.9 1
8
 1 0 0 1 0.1 0 0.9 1
8
 1 0 0 1 0.1 0 0.9 1
8
 1 0 0 1 0.5 0 0.5 1
8
 1 0 0 1 0.5 0 0.5 1
8
 1 0 0 1 0.75 0 0.25 1
8
 1 0 0 1 0.1 0 0.9 1
8
 1 0 0 1 0.5 0 0.5 1
8
 1 0 0 1 0.5 0 0.5 1
8
 1 0 0 1 0.05 0 0.95 1
8
 1 0 0 1 0.2 0 0.8 1
8
 1 0 0 1 0.5 0 0.5 1
8
 1 0 0 1 0.5 0 0.5 1
8
 1 0 0 1 0.2 0 0.8 1
8
 1 0 0 1 0.1 0 0.9 1
8
 1 0 0 1 0.5 0 0.5 1
8
 1 0 0 1 0.5 0 0.5 1
8
 1 0 0 1 0.05 0 0.95 1
8
 1 0 0 1 0.3 0 0.7 1
8
 1 0 0 1 0.5 0 0.5 1
8
 1 0 0 1 0.01 0 0.99 1
8
 1 0 0 1 0.5 0 0.5 1
8
 1 0 0 1 0.5 0 0.5 1
8
 1 0 0 1 0.5 0 0.5 1
8
 1 0 0 1 0.1 0 0.9 1
2
 0.03 1
2
 0.99995 5e-05
2
 0.99968 0.00032
2
 0.9999 0.0001
2
 0.999995 5e-06
2
 0.9999 0.0001
2
 0.99999 1e-05
2
 0.99975 0.00025
2
 0.99998 2e-05
2
 0.999993 7e-06
2
 0.9999 0.0001
2
 0.9998 0.0002
2
 1 4e-08
2
 0.99999 1e-05
2
 0.999999 1.4e-06
2
 0.999998 2e-06
2
 0.99995 5e-05
2
 0.9999 0.0001
2
 0.9999 0.0001
2
 0.999977 2.342e-05
2
 0.99989 0.00011
2
 0.99998 2e-05
2
 0.9999 0.0001
2
 0.99998 2e-05
2
 0.9999 0.0001
2
 0.99998 2e-05
2
 0.99999 1e-05
2
 0.99995 5e-05
2
 0.99992 8e-05
2
 0.99974 0.00026
2
 1 1.1e-07
2
 0.99998 2e-05
2
 0.9996 0.0004
2
 0.99999 1e-05
2
 0.999999 1.26e-06
2
 0.99996 4e-05
2
 0.99998 2e-05
2
 0.9998 0.0002
2
 0.9995 0.0005
2
 0.9999 0.0001
2
 0.9999 0.0001
2
 0.9991 0.0009
2
 0.99992 8e-05
2
 0.9999 0.0001
2
 0.99989 0.00011
2
 0.9996 0.0004
2
 0.99995 5e-05
2
 0.9995 0.0005
2
 0.99999 1e-05
2
 0.9999 0.0001
2
 0.999999 1e-06
2
 0.9999 0.0001
2
 0.9995 0.0005
2
 0.99999 1e-05
2
 0.99995 5e-05
2
 0.9999 0.0001
2
 0.999 0.001
2
 0.99991 9e-05
2
 0.9996 0.0004
2
 0.99998 2e-05
2
 0.99999 1e-05
2
 0.99986 0.00014
2
 0.9999 0.0001
2
 0.99982 0.00018
2
 0.9999 0.0001
2
 0.999999 1e-06
2
 0.99999 1e-05
2
 0.9997 0.0003
2
 0.99995 5e-05
2
 0.99993 7e-05
2
 0.9991 0.0009
2
 0.9998 0.0002
2
 0.9998 0.0002
2
 0.99998 2e-05
2
 0.9999 0.0001
2
 0.99996 4e-05
2
 0.9997 0.0003
2
 0.9999 0.0001
2
 0.99993 7e-05
2
 0.9999 0.0001
2
 0.99991 9e-05
2
 0.9999 0.0001
2
 1 1e-08
2
 1 4e-08
2
 0.9999 0.0001
2
 0.9999 0.0001
2
 0.9999 0.0001
2
 0.99999 1e-05
2
 0.9999 0.0001
2
 0.999977 2.291e-05
2
 0.9996 0.0004
2
 0.996 0.004
2
 0.999999 1e-06
2
 0.9991 0.0009
2
 0.99989 0.00011
2
 1 2e-07
2
 0.998 0.002
2
 0.995 0.005
2
 0.99998 2.003e-05
2
 0.997 0.003
2
 0.9999 0.0001
2
 0.99987 0.00013
2
 0.9997 0.0003
2
 0.9999 0.0001
2
 0.9995 0.0005
2
 0.99995 5e-05
2
 0.99995 5e-05
2
 1 2.8e-07
2
 0.999 0.001
2
 0.999991 8.59e-06
2
 0.99995 5e-05
2
 0.99992 8e-05
2
 0.997 0.003
2
 0.999999 1e-06
2
 0.99995 5e-05
2
 0.9999 0.0001
2
 0.9999 0.0001
2
 0.999996 4e-06
2
 0.9995 0.0005
2
 0.9999 0.0001
2
 0.99999 1e-05
2
 1 1.6e-07
2
 0.9999 0.0001
2
 0.9999 0.0001
2
 0.9999 0.0001
2
 0.9999 0.0001
2
 0.99989 0.00011
2
 0.999969 3.12e-05
2
 0.999999 1e-06
2
 0.99975 0.00025
2
 0.9999 0.0001
2
 0.9999 0.0001
2
 1 1e-08
2
 0.99999 1e-05
2
 0.9995 0.0005
2
 1 1.4e-07
2
 0.9998 0.0002
2
 0.999953 4.733e-05
2
 0.99998 2e-05
2
 0.9999 0.0001
2
 0.9999 0.0001
2
 0.9999 0.0001
2
 0.9995 0.0005
2
 0.99995 5e-05
2
 0.99994 6e-05
2
 0.99991 9e-05
2
 0.99991 9e-05
2
 0.9999 0.0001
2
 0.9999 0.0001
2
 0.99995 5e-05
2
 0.9995 0.0005
2
 1 2.9e-07
2
 1 6e-08
2
 0.99994 6e-05
2
 0.9998 0.0002
2
 0.998 0.002
2
 0.9979 0.0021
2
 0.999994 6e-06
2
 0.9999 0.0001
2
 0.9998 0.0002
2
 0.99999 1e-05
2
 0.999999 1e-06
2
 0.99997 3e-05
2
 0.99995 5e-05
2
 0.99997 3e-05
2
 0.999999 1e-06
2
 0.99998 2e-05
2
 1 1e-08
2
 0.99998 2e-05
2
 0.9997 0.0003
2
 0.9999 0.0001
2
 0.9999 0.0001
2
 0.999999 1e-06
2
 0.99995 5e-05
2
 0.9999 0.0001
2
 1 1e-08
2
 0.99997 3e-05
2
 0.99998 2e-05
2
 1 1e-07
2
 1 1e-07
2
 0.9999 0.0001
2
 0.99997 3e-05
2
 0.99999 1e-05
2
 0.99996 4e-05
2
 0.9999 0.0001
2
 0.999585 0.000415
2
 0.9995 0.0005
2
 0.9998 0.0002
2
 0.999 0.001
2
 0.9999 0.0001
2
 0.9996 0.0004
2
 0.99993 7e-05
2
 0.9995 0.0005
2
 0.99995 5e-05
2
 0.99997 3e-05
2
 0.9999 0.0001
2
 0.9999 0.0001
2
 0.999999 8.1e-07
2
 0.9986 0.0014
2
 0.999 0.001
2
 0.99999 1e-05
2
 0.9981 0.0019
2
 0.99995 5e-05
2
 0.9999 0.0001
2
 0.9999 0.0001
2
 0.9999 0.0001
2
 0.99989 0.00011
2
 0.99975 0.00025
2
 0.9999 0.0001
2
 0.9995 0.0005
2
 0.9999 0.0001
2
 0.999999 1e-06
2
 0.9996 0.0004
2
 0.9999 0.0001
2
 0.99994 6e-05
2
 0.9999 0.0001
2
 0.99999 1e-05
2
 0.9999 0.0001
2
 0.99995 5e-05
2
 0.998 0.002
2
 0.999998 2e-06
2
 0.9999 0.0001
2
 0.99989 0.00011
2
 0.99995 5e-05
2
 0.9999 0.0001
2
 0.99996 4e-05
2
 0.99982 0.00018
2
 0.99981 0.00019
2
 0.9999 0.0001
2
 0.9999 0.0001
2
 1 1e-08
2
 0.999998 2e-06
2
 1 1.7e-07
2
 0.9999 0.0001
2
 1 1.1e-07
2
 0.99997 3e-05
2
 0.99999 1e-05
2
 0.9999 0.0001
2
 0.99998 2e-05
2
 0.99989 0.00011
2
 0.9999 0.0001
2
 1 6e-08
2
 0.99996 4e-05
2
 0.9999 0.0001
2
 0.99991 9e-05
2
 0.999973 2.7e-05
2
 0.99995 5e-05
2
 0.99999 1e-05
2
 0.9999 0.0001
2
 0.9999 0.0001
2
 0.9991 0.0009
2
 0.9999 0.0001
2
 1 1e-08
2
 0.9999 0.0001
2
 0.99985 0.00015
2
 0.99998 2e-05
2
 0.9998 0.0002
2
 0.9999 0.0001
2
 0.9998 0.0002
2
 0.9995 0.0005
2
 0.99999 1e-05
2
 0.999997 2.88e-06
2
 0.9995 0.0005
2
 0.99922 0.00078
2
 0.9998 0.0002
2
 0.99995 5e-05
2
 0.9998 0.0002
2
 0.9999 0.0001
2
 1 5e-07
2
 0.9994 0.0006
2
 0.99999 1e-05
2
 0.9999 0.0001
2
 0.9995 0.0005
2
 0.99999 1e-05
2
 0.9999 0.0001
2
 0.9998 0.0002
2
 0.99984 0.00016
2
 0.999999 1e-06
2
 0.999 0.001
2
 0.9996 0.0004
2
 0.99997 3e-05
2
 0.999 0.001
2
 0.996 0.004
2
 0.9996 0.0004
2
 0.99996 4e-05
2
 1 4e-08
2
 0.9999 0.0001
2
 0.99998 2e-05
2
 0.99995 5e-05
2
 0.9965 0.0035
2
 0.9999 0.0001
2
 0.9928 0.0072
2
 0.9999 0.0001
2
 0.99985 0.00015
2
 0.99996 4e-05
2
 0.9999 0.0001
2
 0.9995 0.0005
2
 0.9985 0.0015
2
 0.99995 5e-05
2
 0.9999 0.0001
2
 1 1e-08
2
 0.999784 0.000216
2
 0.9988 0.0012
2
 0.99995 5e-05
2
 0.9995 0.0005
2
 0.999999 6.2e-07
2
 0.99995 5e-05
2
 0.9999 0.0001
2
 0.99998 2e-05
2
 1 1.2e-07
2
 0.99998 2e-05
2
 0.9995 0.0005
2
 0.9996 0.0004
2
 0.9997 0.0003
2
 0.999997 2.82e-06
2
 0.99998 2e-05
2
 0.99999 1e-05
2
 0.9999 0.0001
2
 0.9995 0.0005
2
 0.9999 0.0001
2
 1 2e-08
2
 0.9994 0.0006
2
 0.9999 0.0001
2
 0.999907 9.332e-05
2
 0.9994 0.0006
2
 0.9999 0.0001
2
 0.999999 5.4e-07
2
 0.9999 0.0001
2
 0.99997 3e-05
2
 0.999999 1e-06
2
 0.99995 5e-05
2
 0.999992 8e-06
2
 0.99975 0.00025
2
 0.9999 0.0001
2
 0.99999 1e-05
2
 0.9999 0.0001
2
 0.9999 0.0001
2
 0.99999 1e-05
2
 0.9995 0.0005
2
 0.999 0.001
2
 0.99999 1e-05
2
 0.99997 3e-05
2
 0.9985 0.0015
2
 0.99995 5e-05
2
 0.9995 0.0005
2
 0.9999 0.0001
2
 0.99998 2e-05
2
 0.9999 0.0001
2
 0.9996 0.0004
2
 0.99997 3e-05
2
 0.99994 6e-05
2
 0.99999 1e-05
2
 0.9995 0.0005
2
 0.9999 0.0001
2
 0.9995 0.0005
2
 0.9999 0.0001
2
 0.99989 0.00011
2
 0.9999 0.0001
2
 0.9995 0.0005
2
 0.9999 0.0001
2
 0.9994 0.0006
2
 0.99996 4e-05
2
 0.99997 3e-05
2
 0.9999 0.0001
2
 0.99998 2e-05
2
 0.99996 4e-05
2
 1 5e-07
1
 1

